NAME : STSP_150-1over3
COMMENT : Length = 1105
COMMENT : Found by LKH-3 [Keld Helsgaun]
TYPE : TOUR
DIMENSION : 50
TOUR_SECTION
25
130
32
109
20
92
58
39
49
126
105
35
100
35
140
56
140
133
131
57
13
57
96
119
10
84
11
95
148
34
60
6
138
30
47
137
47
124
45
146
66
72
28
4
15
21
147
87
147
116
51
99
73
132
63
86
38
89
31
3
1
61
101
71
143
68
143
71
12
90
145
14
127
78
142
88
115
120
36
8
46
76
46
128
23
70
150
118
59
19
83
81
94
55
44
41
106
80
64
-1
EOF
